p cnf 37 102
a 35 23 0
e 1 2 3 4 5 6 7 8 9 10 11 12 13 14 15 16 17 18 19 20 21 22 24 25 26 27 28 29 30 31 32 33 34 36 37 0
-2 -3 -4 0
2 3 -4 0
-2 3 4 0
2 -3 4 0
1 -4 -5 0
-1 4 -5 0
1 4 5 0
-1 -4 5 0
1 6 -7 0
-1 -6 -7 0
1 -6 7 0
-1 6 7 0
-5 7 -8 0
5 -7 -8 0
-5 -7 8 0
5 7 8 0
9 -1 0
9 -8 0
1 8 -9 0
6 -3 -10 0
-6 3 -10 0
6 3 10 0
-6 -3 10 0
10 -11 -12 0
-10 11 -12 0
10 11 12 0
-10 -11 12 0
-12 13 0
12 13 0
16 14 0
16 -15 0
-14 15 -16 0
-17 -13 0
-17 16 0
13 -16 17 0
18 -9 0
18 -17 0
9 17 -18 0
-1 8 -19 0
1 -8 -19 0
-1 -8 19 0
1 8 19 0
-20 2 0
-20 14 0
-2 -14 20 0
-22 20 0
-22 21 0
-20 -21 22 0
23 11 0
23 -21 0
-11 21 -23 0
-7 14 -24 0
7 -14 -24 0
-7 -14 24 0
7 14 24 0
-25 23 0
-25 -24 0
-23 24 25 0
-26 -22 0
-26 -25 0
22 25 26 0
-28 27 0
-28 -6 0
-27 6 28 0
-29 26 0
-29 28 0
-26 -28 29 0
-19 -29 -30 0
19 29 -30 0
-19 29 30 0
19 -29 30 0
-32 -21 0
-32 4 0
21 -4 32 0
33 31 0
33 32 0
-31 -32 -33 0
-2 16 -34 0
2 -16 -34 0
-2 -16 34 0
2 16 34 0
-33 34 -35 0
33 -34 -35 0
-33 -34 35 0
33 34 35 0
-36 -30 0
-36 35 0
30 -35 36 0
18 36 -37 0
-18 -36 -37 0
18 -36 37 0
-18 36 37 0
-32 -20 -34 -14 0
28 -20 -21 18 -30 -32 0
31 27 18 32 -1 0
10 15 -6 -24 0
-4 25 19 1 -13 0
-13 24 -5 2 -11 0
-15 -37 -36 -18 0
-26 14 -21 -6 16 -23 0
9 8 6 0
37 0
